(set-logic ALL)
(declare-const name String)
(declare-const force Bool)
(assert (str.contains name "#"))
(assert (not (< (str.len name) 0)))
(assert (> (+ 0 (str.indexof name ":" 0)) 0))
(assert (not (< (+ 0 (str.indexof name ":" 0)) 0)))
(assert (not (= (str.substr name 0 (- (+ 0 (str.indexof name ":" 0)) 0)) "http")))
(assert (not (< (+ 0 (str.indexof name ":" 0)) 0)))
(assert (< 0 (str.len (str.substr name 0 (- (+ 0 (str.indexof name ":" 0)) 0)))))
(assert (< 1 (str.len (str.substr name 0 (- (+ 0 (str.indexof name ":" 0)) 0)))))
(assert (< 2 (str.len (str.substr name 0 (- (+ 0 (str.indexof name ":" 0)) 0)))))
(assert (not (< 3 (str.len (str.substr name 0 (- (+ 0 (str.indexof name ":" 0)) 0))))))
(assert (not (< (+ (+ 0 (str.indexof name ":" 0)) 1) 0)))
(assert (not (< (str.len name) 0)))
(assert (not (= (str.substr name (+ (+ 0 (str.indexof name ":" 0)) 1) (- (str.len name) (+ (+ 0 (str.indexof name ":" 0)) 1))) "")))
(assert (< 0 (str.len (str.substr name (+ (+ 0 (str.indexof name ":" 0)) 1) (- (str.len name) (+ (+ 0 (str.indexof name ":" 0)) 1))))))
(assert (not (< (+ 0 (str.indexof name ":" 0)) 0)))
(assert (not (= (str.substr (str.substr name (+ (+ 0 (str.indexof name ":" 0)) 1) (- (str.len name) (+ (+ 0 (str.indexof name ":" 0)) 1))) 0 (- 2 0)) "//")))
(assert (str.contains (str.substr name (+ (+ 0 (str.indexof name ":" 0)) 1) (- (str.len name) (+ (+ 0 (str.indexof name ":" 0)) 1))) "#"))
(assert (not (< (str.len (str.substr name (+ (+ 0 (str.indexof name ":" 0)) 1) (- (str.len name) (+ (+ 0 (str.indexof name ":" 0)) 1)))) 0)))
(assert (not (= (+ 0 (str.indexof (str.substr name (+ (+ 0 (str.indexof name ":" 0)) 1) (- (str.len name) (+ (+ 0 (str.indexof name ":" 0)) 1))) "#" 0)) (- 1))))
(assert (not (< (+ 0 (str.indexof (str.substr name (+ (+ 0 (str.indexof name ":" 0)) 1) (- (str.len name) (+ (+ 0 (str.indexof name ":" 0)) 1))) "#" 0)) 0)))
(assert (not (< (+ (+ 0 (str.indexof (str.substr name (+ (+ 0 (str.indexof name ":" 0)) 1) (- (str.len name) (+ (+ 0 (str.indexof name ":" 0)) 1))) "#" 0)) 1) 0)))
(assert (not (< (str.len (str.substr name (+ (+ 0 (str.indexof name ":" 0)) 1) (- (str.len name) (+ (+ 0 (str.indexof name ":" 0)) 1)))) 0)))
(assert (not (str.contains (str.substr (str.substr name (+ (+ 0 (str.indexof name ":" 0)) 1) (- (str.len name) (+ (+ 0 (str.indexof name ":" 0)) 1))) 0 (- (+ 0 (str.indexof (str.substr name (+ (+ 0 (str.indexof name ":" 0)) 1) (- (str.len name) (+ (+ 0 (str.indexof name ":" 0)) 1))) "#" 0)) 0)) "?")))
(assert (not (not (= (str.substr (str.substr name (+ (+ 0 (str.indexof name ":" 0)) 1) (- (str.len name) (+ (+ 0 (str.indexof name ":" 0)) 1))) 0 (- (+ 0 (str.indexof (str.substr name (+ (+ 0 (str.indexof name ":" 0)) 1) (- (str.len name) (+ (+ 0 (str.indexof name ":" 0)) 1))) "#" 0)) 0)) ""))))
(assert (not (not (= (str.substr (str.substr name (+ (+ 0 (str.indexof name ":" 0)) 1) (- (str.len name) (+ (+ 0 (str.indexof name ":" 0)) 1))) 0 (- (+ 0 (str.indexof (str.substr name (+ (+ 0 (str.indexof name ":" 0)) 1) (- (str.len name) (+ (+ 0 (str.indexof name ":" 0)) 1))) "#" 0)) 0)) ""))))
(assert (not (< (str.len (str.++ "cab:" (str.substr (str.substr name (+ (+ 0 (str.indexof name ":" 0)) 1) (- (str.len name) (+ (+ 0 (str.indexof name ":" 0)) 1))) 0 (- (+ 0 (str.indexof (str.substr name (+ (+ 0 (str.indexof name ":" 0)) 1) (- (str.len name) (+ (+ 0 (str.indexof name ":" 0)) 1))) "#" 0)) 0)))) 0)))
(assert (> (+ 0 (str.indexof (str.++ "cab:" (str.substr (str.substr name (+ (+ 0 (str.indexof name ":" 0)) 1) (- (str.len name) (+ (+ 0 (str.indexof name ":" 0)) 1))) 0 (- (+ 0 (str.indexof (str.substr name (+ (+ 0 (str.indexof name ":" 0)) 1) (- (str.len name) (+ (+ 0 (str.indexof name ":" 0)) 1))) "#" 0)) 0))) ":" 0)) 0))
(assert (not (< (+ 0 (str.indexof (str.++ "cab:" (str.substr (str.substr name (+ (+ 0 (str.indexof name ":" 0)) 1) (- (str.len name) (+ (+ 0 (str.indexof name ":" 0)) 1))) 0 (- (+ 0 (str.indexof (str.substr name (+ (+ 0 (str.indexof name ":" 0)) 1) (- (str.len name) (+ (+ 0 (str.indexof name ":" 0)) 1))) "#" 0)) 0))) ":" 0)) 0)))
(assert (not (= (str.substr (str.++ "cab:" (str.substr (str.substr name (+ (+ 0 (str.indexof name ":" 0)) 1) (- (str.len name) (+ (+ 0 (str.indexof name ":" 0)) 1))) 0 (- (+ 0 (str.indexof (str.substr name (+ (+ 0 (str.indexof name ":" 0)) 1) (- (str.len name) (+ (+ 0 (str.indexof name ":" 0)) 1))) "#" 0)) 0))) 0 (- (+ 0 (str.indexof (str.++ "cab:" (str.substr (str.substr name (+ (+ 0 (str.indexof name ":" 0)) 1) (- (str.len name) (+ (+ 0 (str.indexof name ":" 0)) 1))) 0 (- (+ 0 (str.indexof (str.substr name (+ (+ 0 (str.indexof name ":" 0)) 1) (- (str.len name) (+ (+ 0 (str.indexof name ":" 0)) 1))) "#" 0)) 0))) ":" 0)) 0)) "http")))
(assert (not (< (+ 0 (str.indexof (str.++ "cab:" (str.substr (str.substr name (+ (+ 0 (str.indexof name ":" 0)) 1) (- (str.len name) (+ (+ 0 (str.indexof name ":" 0)) 1))) 0 (- (+ 0 (str.indexof (str.substr name (+ (+ 0 (str.indexof name ":" 0)) 1) (- (str.len name) (+ (+ 0 (str.indexof name ":" 0)) 1))) "#" 0)) 0))) ":" 0)) 0)))
(assert (< 0 (str.len (str.substr (str.++ "cab:" (str.substr (str.substr name (+ (+ 0 (str.indexof name ":" 0)) 1) (- (str.len name) (+ (+ 0 (str.indexof name ":" 0)) 1))) 0 (- (+ 0 (str.indexof (str.substr name (+ (+ 0 (str.indexof name ":" 0)) 1) (- (str.len name) (+ (+ 0 (str.indexof name ":" 0)) 1))) "#" 0)) 0))) 0 (- (+ 0 (str.indexof (str.++ "cab:" (str.substr (str.substr name (+ (+ 0 (str.indexof name ":" 0)) 1) (- (str.len name) (+ (+ 0 (str.indexof name ":" 0)) 1))) 0 (- (+ 0 (str.indexof (str.substr name (+ (+ 0 (str.indexof name ":" 0)) 1) (- (str.len name) (+ (+ 0 (str.indexof name ":" 0)) 1))) "#" 0)) 0))) ":" 0)) 0)))))
(assert (< 1 (str.len (str.substr (str.++ "cab:" (str.substr (str.substr name (+ (+ 0 (str.indexof name ":" 0)) 1) (- (str.len name) (+ (+ 0 (str.indexof name ":" 0)) 1))) 0 (- (+ 0 (str.indexof (str.substr name (+ (+ 0 (str.indexof name ":" 0)) 1) (- (str.len name) (+ (+ 0 (str.indexof name ":" 0)) 1))) "#" 0)) 0))) 0 (- (+ 0 (str.indexof (str.++ "cab:" (str.substr (str.substr name (+ (+ 0 (str.indexof name ":" 0)) 1) (- (str.len name) (+ (+ 0 (str.indexof name ":" 0)) 1))) 0 (- (+ 0 (str.indexof (str.substr name (+ (+ 0 (str.indexof name ":" 0)) 1) (- (str.len name) (+ (+ 0 (str.indexof name ":" 0)) 1))) "#" 0)) 0))) ":" 0)) 0)))))
(assert (< 2 (str.len (str.substr (str.++ "cab:" (str.substr (str.substr name (+ (+ 0 (str.indexof name ":" 0)) 1) (- (str.len name) (+ (+ 0 (str.indexof name ":" 0)) 1))) 0 (- (+ 0 (str.indexof (str.substr name (+ (+ 0 (str.indexof name ":" 0)) 1) (- (str.len name) (+ (+ 0 (str.indexof name ":" 0)) 1))) "#" 0)) 0))) 0 (- (+ 0 (str.indexof (str.++ "cab:" (str.substr (str.substr name (+ (+ 0 (str.indexof name ":" 0)) 1) (- (str.len name) (+ (+ 0 (str.indexof name ":" 0)) 1))) 0 (- (+ 0 (str.indexof (str.substr name (+ (+ 0 (str.indexof name ":" 0)) 1) (- (str.len name) (+ (+ 0 (str.indexof name ":" 0)) 1))) "#" 0)) 0))) ":" 0)) 0)))))
(assert (not (< 3 (str.len (str.substr (str.++ "cab:" (str.substr (str.substr name (+ (+ 0 (str.indexof name ":" 0)) 1) (- (str.len name) (+ (+ 0 (str.indexof name ":" 0)) 1))) 0 (- (+ 0 (str.indexof (str.substr name (+ (+ 0 (str.indexof name ":" 0)) 1) (- (str.len name) (+ (+ 0 (str.indexof name ":" 0)) 1))) "#" 0)) 0))) 0 (- (+ 0 (str.indexof (str.++ "cab:" (str.substr (str.substr name (+ (+ 0 (str.indexof name ":" 0)) 1) (- (str.len name) (+ (+ 0 (str.indexof name ":" 0)) 1))) 0 (- (+ 0 (str.indexof (str.substr name (+ (+ 0 (str.indexof name ":" 0)) 1) (- (str.len name) (+ (+ 0 (str.indexof name ":" 0)) 1))) "#" 0)) 0))) ":" 0)) 0))))))
(assert (not (< (+ (+ 0 (str.indexof (str.++ "cab:" (str.substr (str.substr name (+ (+ 0 (str.indexof name ":" 0)) 1) (- (str.len name) (+ (+ 0 (str.indexof name ":" 0)) 1))) 0 (- (+ 0 (str.indexof (str.substr name (+ (+ 0 (str.indexof name ":" 0)) 1) (- (str.len name) (+ (+ 0 (str.indexof name ":" 0)) 1))) "#" 0)) 0))) ":" 0)) 1) 0)))
(assert (not (< (str.len (str.++ "cab:" (str.substr (str.substr name (+ (+ 0 (str.indexof name ":" 0)) 1) (- (str.len name) (+ (+ 0 (str.indexof name ":" 0)) 1))) 0 (- (+ 0 (str.indexof (str.substr name (+ (+ 0 (str.indexof name ":" 0)) 1) (- (str.len name) (+ (+ 0 (str.indexof name ":" 0)) 1))) "#" 0)) 0)))) 0)))
(assert (not (not (= (str.substr (str.++ "cab:" (str.substr (str.substr name (+ (+ 0 (str.indexof name ":" 0)) 1) (- (str.len name) (+ (+ 0 (str.indexof name ":" 0)) 1))) 0 (- (+ 0 (str.indexof (str.substr name (+ (+ 0 (str.indexof name ":" 0)) 1) (- (str.len name) (+ (+ 0 (str.indexof name ":" 0)) 1))) "#" 0)) 0))) (+ (+ 0 (str.indexof (str.++ "cab:" (str.substr (str.substr name (+ (+ 0 (str.indexof name ":" 0)) 1) (- (str.len name) (+ (+ 0 (str.indexof name ":" 0)) 1))) 0 (- (+ 0 (str.indexof (str.substr name (+ (+ 0 (str.indexof name ":" 0)) 1) (- (str.len name) (+ (+ 0 (str.indexof name ":" 0)) 1))) "#" 0)) 0))) ":" 0)) 1) (- (str.len (str.++ "cab:" (str.substr (str.substr name (+ (+ 0 (str.indexof name ":" 0)) 1) (- (str.len name) (+ (+ 0 (str.indexof name ":" 0)) 1))) 0 (- (+ 0 (str.indexof (str.substr name (+ (+ 0 (str.indexof name ":" 0)) 1) (- (str.len name) (+ (+ 0 (str.indexof name ":" 0)) 1))) "#" 0)) 0)))) (+ (+ 0 (str.indexof (str.++ "cab:" (str.substr (str.substr name (+ (+ 0 (str.indexof name ":" 0)) 1) (- (str.len name) (+ (+ 0 (str.indexof name ":" 0)) 1))) 0 (- (+ 0 (str.indexof (str.substr name (+ (+ 0 (str.indexof name ":" 0)) 1) (- (str.len name) (+ (+ 0 (str.indexof name ":" 0)) 1))) "#" 0)) 0))) ":" 0)) 1))) ""))))
(assert (not (< (+ 0 (str.indexof (str.++ "cab:" (str.substr (str.substr name (+ (+ 0 (str.indexof name ":" 0)) 1) (- (str.len name) (+ (+ 0 (str.indexof name ":" 0)) 1))) 0 (- (+ 0 (str.indexof (str.substr name (+ (+ 0 (str.indexof name ":" 0)) 1) (- (str.len name) (+ (+ 0 (str.indexof name ":" 0)) 1))) "#" 0)) 0))) ":" 0)) 0)))
(assert (not (= (str.substr (str.substr (str.++ "cab:" (str.substr (str.substr name (+ (+ 0 (str.indexof name ":" 0)) 1) (- (str.len name) (+ (+ 0 (str.indexof name ":" 0)) 1))) 0 (- (+ 0 (str.indexof (str.substr name (+ (+ 0 (str.indexof name ":" 0)) 1) (- (str.len name) (+ (+ 0 (str.indexof name ":" 0)) 1))) "#" 0)) 0))) (+ (+ 0 (str.indexof (str.++ "cab:" (str.substr (str.substr name (+ (+ 0 (str.indexof name ":" 0)) 1) (- (str.len name) (+ (+ 0 (str.indexof name ":" 0)) 1))) 0 (- (+ 0 (str.indexof (str.substr name (+ (+ 0 (str.indexof name ":" 0)) 1) (- (str.len name) (+ (+ 0 (str.indexof name ":" 0)) 1))) "#" 0)) 0))) ":" 0)) 1) (- (str.len (str.++ "cab:" (str.substr (str.substr name (+ (+ 0 (str.indexof name ":" 0)) 1) (- (str.len name) (+ (+ 0 (str.indexof name ":" 0)) 1))) 0 (- (+ 0 (str.indexof (str.substr name (+ (+ 0 (str.indexof name ":" 0)) 1) (- (str.len name) (+ (+ 0 (str.indexof name ":" 0)) 1))) "#" 0)) 0)))) (+ (+ 0 (str.indexof (str.++ "cab:" (str.substr (str.substr name (+ (+ 0 (str.indexof name ":" 0)) 1) (- (str.len name) (+ (+ 0 (str.indexof name ":" 0)) 1))) 0 (- (+ 0 (str.indexof (str.substr name (+ (+ 0 (str.indexof name ":" 0)) 1) (- (str.len name) (+ (+ 0 (str.indexof name ":" 0)) 1))) "#" 0)) 0))) ":" 0)) 1))) 0 (- 2 0)) "//")))
(assert (str.contains (str.substr (str.++ "cab:" (str.substr (str.substr name (+ (+ 0 (str.indexof name ":" 0)) 1) (- (str.len name) (+ (+ 0 (str.indexof name ":" 0)) 1))) 0 (- (+ 0 (str.indexof (str.substr name (+ (+ 0 (str.indexof name ":" 0)) 1) (- (str.len name) (+ (+ 0 (str.indexof name ":" 0)) 1))) "#" 0)) 0))) (+ (+ 0 (str.indexof (str.++ "cab:" (str.substr (str.substr name (+ (+ 0 (str.indexof name ":" 0)) 1) (- (str.len name) (+ (+ 0 (str.indexof name ":" 0)) 1))) 0 (- (+ 0 (str.indexof (str.substr name (+ (+ 0 (str.indexof name ":" 0)) 1) (- (str.len name) (+ (+ 0 (str.indexof name ":" 0)) 1))) "#" 0)) 0))) ":" 0)) 1) (- (str.len (str.++ "cab:" (str.substr (str.substr name (+ (+ 0 (str.indexof name ":" 0)) 1) (- (str.len name) (+ (+ 0 (str.indexof name ":" 0)) 1))) 0 (- (+ 0 (str.indexof (str.substr name (+ (+ 0 (str.indexof name ":" 0)) 1) (- (str.len name) (+ (+ 0 (str.indexof name ":" 0)) 1))) "#" 0)) 0)))) (+ (+ 0 (str.indexof (str.++ "cab:" (str.substr (str.substr name (+ (+ 0 (str.indexof name ":" 0)) 1) (- (str.len name) (+ (+ 0 (str.indexof name ":" 0)) 1))) 0 (- (+ 0 (str.indexof (str.substr name (+ (+ 0 (str.indexof name ":" 0)) 1) (- (str.len name) (+ (+ 0 (str.indexof name ":" 0)) 1))) "#" 0)) 0))) ":" 0)) 1))) "#"))
(check-sat)
(get-value (name))
(get-value (force))
